words_easy_train/words_462_SAT.qaiger
aag 44 16 0 1 28
20
4
24
12
22
26
30
32
6
8
14
18
2
28
16
10
89
34 30 15
36 31 14
38 37 35
40 23 7
42 28 12
44 43 3
46 44 41
48 24 8
50 29 13
52 25 9
54 53 51
56 54 49
58 56 46
60 21 5
62 20 4
64 63 61
66 32 17
68 33 16
70 69 67
72 71 64
74 22 6
76 27 11
78 26 10
80 79 77
82 80 75
84 82 72
86 84 58
88 86 39
i0 1 x1[1]
i1 2 y1[1]
i2 1 x1[3]
i3 2 y1[5]
i4 1 x1[2]
i5 1 x1[4]
i6 1 x1[6]
i7 1 x1[7]
i8 2 y1[2]
i9 2 y1[3]
i10 2 y1[6]
i11 1 x1[0]
i12 2 y1[0]
i13 1 x1[5]
i14 2 y1[7]
i15 2 y1[4]
o0 bool[0]
c
simplified
  !=
    invert
      2 y1
    or
      1
      1 x1
