words_easy_train/words_462_SAT.qaiger.qdimacs
p cnf 44 85
a 9 10 11 12 13 14 15 16 0
e 1 2 3 4 5 6 7 8 17 18 19 20 21 22 23 24 25 26 27 28 29 30 31 32 33 34 35 36 37 38 39 40 41 42 43 44 0
-15 7 17 0
15 -17 0
-7 -17 0
15 -7 18 0
-15 -18 0
7 -18 0
18 17 19 0
-18 -19 0
-17 -19 0
11 3 20 0
-11 -20 0
-3 -20 0
-14 -6 21 0
14 -21 0
6 -21 0
21 1 22 0
-21 -22 0
-1 -22 0
-22 20 23 0
22 -23 0
-20 -23 0
-12 -4 24 0
12 -24 0
4 -24 0
14 6 25 0
-14 -25 0
-6 -25 0
12 4 26 0
-12 -26 0
-4 -26 0
26 25 27 0
-26 -27 0
-25 -27 0
-27 24 28 0
27 -28 0
-24 -28 0
-28 -23 29 0
28 -29 0
23 -29 0
10 2 30 0
-10 -30 0
-2 -30 0
-10 -2 31 0
10 -31 0
2 -31 0
31 30 32 0
-31 -32 0
-30 -32 0
-16 8 33 0
16 -33 0
-8 -33 0
16 -8 34 0
-16 -34 0
8 -34 0
34 33 35 0
-34 -35 0
-33 -35 0
35 -32 36 0
-35 -36 0
32 -36 0
-11 -3 37 0
11 -37 0
3 -37 0
13 5 38 0
-13 -38 0
-5 -38 0
-13 -5 39 0
13 -39 0
5 -39 0
39 38 40 0
-39 -40 0
-38 -40 0
-40 37 41 0
40 -41 0
-37 -41 0
-41 -36 42 0
41 -42 0
36 -42 0
-42 -29 43 0
42 -43 0
29 -43 0
-43 19 44 0
43 -44 0
-19 -44 0
-44 0
